NAME: random problem
TYPE: MTSP
COMMENT: MTSP problem for MRS UAV summer school
DIMENSION: 20
NUMBER_OF_ROBOTS: 2
START_TARGET_INDEXES: 1, 2
NEIGHBORHOOD_RADIUS: 2
EDGE_WEIGHT_TYPE: EUC_2D
NODE_COORD_SECTION
1 15.0 -21.0
2 -5.0 -25.0
3 1.9 -9.3
4 -31.9 -24.6
5 29.1 -0.7
6 37.2 -22.1
7 23.4 9.9
8 28.7 3.1
9 28.8 -3.0
10 -37.9 -5.2
11 -11.7 7.4
12 11.3 -25.5
13 8.1 -6.3
14 19.6 -6.4
15 9.5 15.8
16 -35.0 4.6
17 -3.5 7.8
18 26.6 11.1
19 9.2 -1.2
20 29.7 3.6
EOF
